92 4
21 27 22 23
0 0 0 0 0 3 2 3 4
5 0 0 0 5 2 13 47
8 0 0 0 1 3 9 10 18
6 0 0 9 0 3 5 6 15
3 0 0 9 0 3 14 16 22
5 0 0 8 0 3 7 8 38
7 0 9 0 0 3 11 35 53
3 0 0 8 0 1 31
7 6 0 0 0 2 12 57
5 0 0 0 2 2 23 33
6 0 0 0 6 1 69
1 0 0 7 0 1 27
5 0 0 9 0 2 50 81
10 0 3 0 0 2 61 74
5 0 0 0 5 3 17 19 25
4 0 0 3 0 1 20
4 0 8 0 0 1 85
5 0 9 0 0 2 29 79
2 0 0 0 4 1 24
6 0 0 0 10 2 21 56
3 6 0 0 0 3 85 87 89
3 0 0 8 0 2 32 70
7 8 0 0 0 2 26 30
6 0 0 8 0 2 34 36
8 6 0 0 0 1 51
9 0 5 0 0 1 28
4 0 0 0 6 2 52 73
1 1 0 0 0 3 59 65 86
6 0 6 0 0 1 76
7 0 0 0 9 3 40 45 64
9 2 0 0 0 3 46 48 83
10 0 6 0 0 1 60
9 4 0 0 0 2 49 52
7 0 0 0 10 3 37 54 68
10 0 0 0 1 2 39 43
6 0 7 0 0 2 72 76
8 0 0 2 0 2 41 58
7 0 0 0 5 1 44
7 0 0 0 8 3 42 55 60
5 0 5 0 0 1 76
2 9 0 0 0 1 74
7 0 0 0 1 1 84
1 0 0 0 10 1 78
10 0 3 0 0 1 82
1 7 0 0 0 2 57 77
3 2 0 0 0 1 53
5 0 4 0 0 1 82
4 0 0 2 0 1 91
1 0 2 0 0 1 77
10 0 0 0 2 1 75
1 0 0 0 4 1 62
4 0 8 0 0 1 75
2 0 0 7 0 1 64
5 0 0 6 0 1 64
10 0 0 2 0 1 66
4 1 0 0 0 1 88
9 0 6 0 0 1 66
1 0 0 7 0 1 59
6 5 0 0 0 2 63 84
7 0 0 0 3 1 61
9 0 2 0 0 1 77
4 0 0 9 0 2 66 67
3 0 0 0 1 1 89
8 0 0 0 1 1 90
10 0 1 0 0 1 81
3 0 0 0 3 1 69
2 5 0 0 0 1 71
10 0 6 0 0 1 69
8 0 0 5 0 1 72
1 0 0 8 0 1 81
10 0 0 0 9 1 79
10 0 0 0 3 1 80
4 9 0 0 0 1 74
8 0 0 0 6 1 78
1 0 7 0 0 1 82
10 9 0 0 0 2 85 87
10 0 0 0 10 1 80
7 0 3 0 0 2 79 91
4 0 0 0 4 1 88
5 1 0 0 0 2 83 86
2 10 0 0 0 1 90
8 0 0 5 0 1 84
6 4 0 0 0 1 88
9 0 0 3 0 1 87
1 1 0 0 0 1 86
4 1 0 0 0 1 91
1 0 4 0 0 1 90
6 0 3 0 0 1 89
3 0 0 0 6 1 92
5 0 0 1 0 1 92
3 0 0 0 1 1 92
0 0 0 0 0 0 